5711
5672
5728
5693
5762
5691
5736
5765
5716
5657
5695
5774
5632
5692
5803
5828
5670
5720
5688
5725
5766
5711
5722
5750
5706
5729
5701
5717
5740
5663
5650
5700
5800
5677
5761
5706
5736
5771
5654
5747
5580
5713
5747
5731
5730
5711
5731
5640
5550
5755
5692
5716
5727
5688
5629
5677
5709
5821
5715
5803
5682
5686
5735
5691
5587
5759
5710
5759
5661
5749
5669
5607
5762
5685
5699
5673
5713
5711
5739
5645
5770
5745
5664
5693
5509
5787
5777
5615
5739
5653
5701
5751
5715
5736
5732
5742
5786
5860
5703
5784
